%block lattice_abc
3.78 3.78 3.78
60.0 60.0 60.0
%endblock lattice_abc

%block positions_frac
Si 0.00 0.00 0.00
Si 0.25 0.25 0.25
%endblock positions_frac

kpoint_mp_grid 4 4 4

symmetry_generate

